DIMENSION: 70
41
6
42
18
4
2
7
32
3
8
28
26
49
55
19
24
15
57
63
22
59
38
31
69
13
29
70
35
23
1
36
16
47
37
58
50
10
5
53
66
52
60
12
21
34
33
54
62
48
67
11
56
65
51
64
17
43
68
44
14
20
30
27
46
40
61
39
45
25
9
